p wcnf 185 278 279 
1 -20 6 0 
1 -40 11 0 
1 -137 75 0 
1 118 73 0 
1 -141 132 0 
1 -125 -34 0 
1 58 88 0 
1 -91 2 0 
1 -120 -50 0 
1 -113 109 0 
1 -25 -37 0 
1 -91 157 0 
1 -181 -140 0 
1 185 -54 0 
1 -95 -118 0 
1 -75 -110 0 
1 -70 -92 0 
1 98 -1 0 
1 -127 124 0 
1 124 113 0 
1 -164 -60 0 
1 -68 131 0 
1 -152 145 0 
1 168 -90 0 
1 -78 -100 0 
1 -106 -117 0 
1 146 -53 0 
1 -120 -126 0 
1 -117 149 0 
1 24 176 0 
1 164 110 0 
1 96 -158 0 
1 -80 26 0 
1 -34 76 0 
1 77 -116 0 
1 99 75 0 
1 179 69 0 
1 -82 -145 0 
1 59 -12 0 
1 -130 126 0 
1 -140 -35 0 
1 52 -119 0 
1 -5 -119 0 
1 155 -11 0 
1 85 -123 0 
1 65 -169 0 
1 -122 -79 0 
1 152 90 0 
1 172 149 0 
1 -84 -82 0 
1 -160 102 0 
1 87 42 0 
1 -164 -182 0 
1 -94 6 0 
1 19 -114 0 
1 -99 125 0 
1 -25 -148 0 
1 24 -95 0 
1 -15 -129 0 
1 49 54 0 
1 -129 -167 0 
1 -45 -87 0 
1 6 -139 0 
1 -109 167 0 
1 2 40 0 
1 102 -33 0 
1 22 76 0 
1 -79 -178 0 
1 86 -75 0 
1 160 60 0 
1 -58 -31 0 
1 160 163 0 
1 -119 -150 0 
1 -134 155 0 
1 100 121 0 
1 -66 -139 0 
1 91 -120 0 
1 42 130 0 
1 44 53 0 
1 -41 42 0 
1 70 -93 0 
1 101 40 0 
1 10 132 0 
1 -13 183 0 
1 -175 82 0 
1 87 4 0 
1 180 100 0 
1 172 -62 0 
1 158 22 0 
1 -73 -40 0 
1 27 -84 0 
1 130 -42 0 
1 -3 -84 0 
1 -72 40 0 
1 134 115 0 
1 113 -177 0 
1 33 170 0 
1 -44 -22 0 
1 77 10 0 
1 64 -39 0 
1 -163 22 0 
1 -22 -98 0 
1 -112 80 0 
1 -31 -71 0 
1 -55 -131 0 
1 -184 139 0 
1 -10 -151 0 
1 -88 -78 0 
1 77 62 0 
1 75 -57 0 
1 155 118 0 
1 29 -56 0 
1 -144 -6 0 
1 -42 146 0 
1 64 49 0 
1 -119 -89 0 
1 102 122 0 
1 -132 -175 0 
1 118 163 0 
1 107 -115 0 
1 117 140 0 
1 -12 87 0 
1 -21 -27 0 
1 -41 112 0 
1 161 -1 0 
1 -22 171 0 
1 -23 -111 0 
1 -162 -86 0 
1 32 -136 0 
1 -21 29 0 
1 -105 -1 0 
1 -4 160 0 
1 -156 86 0 
1 86 67 0 
1 -45 -66 0 
1 44 35 0 
1 127 123 0 
1 -33 -50 0 
1 183 179 0 
1 101 104 0 
1 153 -109 0 
1 -52 182 0 
1 -24 -82 0 
1 -92 -105 0 
1 -172 -120 0 
1 -13 -61 0 
1 128 -43 0 
1 -112 -178 0 
1 19 115 0 
1 -162 129 0 
1 117 128 0 
1 -77 -50 0 
1 -136 -146 0 
1 -80 -49 0 
1 89 -15 0 
1 114 123 0 
1 52 -50 0 
1 7 -3 0 
1 -157 -111 0 
1 -60 26 0 
1 -68 175 0 
1 -120 165 0 
1 6 -123 0 
1 -155 -29 0 
1 -167 -155 0 
1 -105 -37 0 
1 17 61 0 
1 52 -46 0 
1 -111 160 0 
1 171 168 0 
1 75 -12 0 
1 -152 3 0 
1 -102 78 0 
1 -37 47 0 
1 68 -58 0 
1 111 66 0 
1 -94 138 0 
1 -133 105 0 
1 -37 -180 0 
1 10 53 0 
1 36 106 0 
1 -32 -17 0 
1 160 -147 0 
1 -89 167 0 
1 28 69 0 
1 33 15 0 
1 14 69 0 
1 36 -57 0 
1 127 122 0 
1 -5 173 0 
1 91 -26 0 
1 32 -181 0 
1 -142 -91 0 
1 -58 -30 0 
1 42 -69 0 
1 62 47 0 
1 -117 -125 0 
1 -115 -166 0 
1 -97 -73 0 
1 -148 95 0 
1 45 66 0 
1 -66 -121 0 
1 -29 58 0 
1 -26 153 0 
1 156 72 0 
1 -92 -34 0 
1 16 -22 0 
1 185 -3 0 
1 181 119 0 
1 179 -7 0 
1 -131 -103 0 
1 -128 -33 0 
1 106 135 0 
1 -132 84 0 
1 -153 73 0 
1 86 168 0 
1 108 148 0 
1 113 153 0 
1 -53 140 0 
1 185 -71 0 
1 -174 -116 0 
1 -16 49 0 
1 137 -178 0 
1 171 59 0 
1 122 156 0 
1 -120 -84 0 
1 4 -129 0 
1 22 30 0 
1 -163 177 0 
1 -97 130 0 
1 -126 -120 0 
1 114 40 0 
1 -164 166 0 
1 -68 -82 0 
1 35 -27 0 
1 143 37 0 
1 33 -1 0 
1 16 156 0 
1 163 175 0 
1 124 136 0 
1 80 -55 0 
1 15 56 0 
1 176 -88 0 
1 -170 -124 0 
1 -141 183 0 
1 -168 124 0 
1 -66 -173 0 
1 48 -118 0 
1 -116 -132 0 
1 -86 -13 0 
1 -100 -171 0 
1 150 -153 0 
1 21 -30 0 
1 32 -96 0 
1 -64 61 0 
1 -163 129 0 
1 122 166 0 
1 46 -84 0 
1 152 56 0 
1 144 86 0 
1 19 -62 0 
1 -181 83 0 
1 175 2 0 
1 -28 -127 0 
1 -8 168 0 
1 -4 -126 0 
1 154 -166 0 
1 -81 65 0 
1 -53 86 0 
1 -7 -138 0 
1 130 144 0 
1 61 106 0 
1 -51 19 0 
1 -2 77 0 
1 -69 -76 0 
1 -142 -138 0 
1 -158 86 0 
1 -180 122 0 
